flow=[(5,1,2)(5,2,0)(5,4,0)(5,6,4)(5,8,0)(5,9,0)(5,10,0)(5,11,0)(5,12,0)(5,13,0)(6,5,5)(6,7,3)(6,10,5)(6,11,10)(7,6,1)(8,9,2)(10,12,4)(11,5,2)(11,6,20)(12,5,0)(12,6,0)(12,8,0)(12,9,0)(12,10,0)(12,11,0)(13,12,2)];
